c colouring generated by benchmark framework
p edge 225 5180
v 1 6
v 2 17
v 3 19
v 4 16
v 5 13
v 6 8
v 7 14
v 8 11
v 9 12
v 10 18
v 11 10
v 12 9
v 13 7
v 14 0
v 15 3
v 16 11
v 17 16
v 18 6
v 19 12
v 20 0
v 21 10
v 22 13
v 23 8
v 24 15
v 25 14
v 26 7
v 27 17
v 28 3
v 29 5
v 30 9
v 31 14
v 32 2
v 33 5
v 34 15
v 35 4
v 36 3
v 37 7
v 38 9
v 39 11
v 40 10
v 41 6
v 42 12
v 43 1
v 44 19
v 45 16
v 46 0
v 47 6
v 48 13
v 49 1
v 50 2
v 51 11
v 52 4
v 53 3
v 54 19
v 55 5
v 56 8
v 57 10
v 58 14
v 59 9
v 60 12
v 61 10
v 62 7
v 63 0
v 64 18
v 65 14
v 66 12
v 67 5
v 68 6
v 69 1
v 70 4
v 71 2
v 72 3
v 73 13
v 74 8
v 75 19
v 76 9
v 77 12
v 78 15
v 79 4
v 80 6
v 81 13
v 82 3
v 83 2
v 84 5
v 85 0
v 86 1
v 87 7
v 88 16
v 89 18
v 90 17
v 91 15
v 92 5
v 93 9
v 94 3
v 95 1
v 96 0
v 97 10
v 98 18
v 99 7
v 100 2
v 101 4
v 102 6
v 103 12
v 104 14
v 105 11
v 106 12
v 107 10
v 108 8
v 109 19
v 110 18
v 111 9
v 112 1
v 113 4
v 114 0
v 115 3
v 116 15
v 117 5
v 118 11
v 119 17
v 120 2
v 121 5
v 122 13
v 123 4
v 124 14
v 125 11
v 126 2
v 127 12
v 128 7
v 129 17
v 130 1
v 131 0
v 132 8
v 133 6
v 134 15
v 135 18
v 136 16
v 137 15
v 138 2
v 139 0
v 140 7
v 141 6
v 142 11
v 143 19
v 144 4
v 145 8
v 146 5
v 147 1
v 148 9
v 149 12
v 150 10
v 151 7
v 152 1
v 153 3
v 154 6
v 155 8
v 156 18
v 157 0
v 158 5
v 159 2
v 160 9
v 161 19
v 162 11
v 163 10
v 164 13
v 165 15
v 166 17
v 167 8
v 168 10
v 169 9
v 170 15
v 171 5
v 172 2
v 173 1
v 174 6
v 175 7
v 176 3
v 177 0
v 178 4
v 179 16
v 180 14
v 181 4
v 182 9
v 183 17
v 184 8
v 185 10
v 186 19
v 187 6
v 188 0
v 189 3
v 190 12
v 191 16
v 192 15
v 193 2
v 194 7
v 195 13
v 196 19
v 197 11
v 198 12
v 199 2
v 200 9
v 201 4
v 202 16
v 203 14
v 204 10
v 205 15
v 206 17
v 207 13
v 208 5
v 209 3
v 210 8
v 211 13
v 212 4
v 213 1
v 214 11
v 215 3
v 216 15
v 217 18
v 218 17
v 219 9
v 220 6
v 221 14
v 222 16
v 223 8
v 224 10
v 225 7
